NAME : self_benchmark_2.tsp
TYPE : TSP
DIMENSION : 12
EDGE_WEIGHT_TYPE : EUC_2D
NODE_COORD_SECTION
1 1150 4000
2 1050 2750
3 1150 2250
4 1250 2050
5 1350 2350
6 1050 1550
7 3350 1700
8 3450 1450
9 3550 1600
10 3950 1700
11 4050 2000
12 4050 2150